HUN,8,6,881
2,22,0,23,5,25,4,29,1,21,3,29
4,26,3,26,5,23,1,21,2,26,0,25
3,23,4,22,2,22,1,25,5,30,0,26
2,30,5,24,3,25,1,25,0,28,4,29
2,27,4,26,0,23,1,26,3,27,5,30
2,30,1,29,5,21,0,27,4,21,3,26
4,28,0,24,3,30,1,30,5,25,2,29
0,23,3,28,1,23,4,28,2,27,5,22
